NAME : BB75.3127461.tour
COMMENT : Cost = 0_3127461
COMMENT : Found by LKH [Keld Helsgaun] Sun Apr 23 15:14:36 2017
TYPE : TOUR
DIMENSION : 156
TOUR_SECTION
1
52
127
13
88
73
148
16
91
12
66
87
141
61
29
104
136
47
122
10
85
6
81
40
115
39
114
17
92
53
68
128
143
155
28
103
57
132
71
146
64
139
48
123
7
82
43
118
42
117
46
121
76
151
152
30
105
19
94
51
126
60
34
15
109
135
90
55
130
63
138
35
110
56
131
33
108
20
95
153
75
150
36
111
3
78
65
140
72
147
27
102
41
116
38
22
113
31
97
106
67
142
58
133
156
11
86
45
120
44
25
119
50
125
100
59
37
134
112
23
98
74
149
69
8
144
83
70
145
154
18
93
32
107
4
79
9
84
21
62
96
137
5
80
49
124
54
129
26
101
14
89
24
99
2
77
-1
EOF
